
Gurobi 11.0.3 (win64) logging started Thu Sep  5 11:26:29 2024

Set parameter LogFile to value "C:\Users\ealvarezq\Desktop\L.Cont_Investments_per_hour\IEEE118_mod2_ByStages_nc30/openStarNet_IEEE118_mod2_ByStages_nc30.log"
Set parameter Method to value 2
Set parameter MIPFocus to value 1
Set parameter Presolve to value 2
Set parameter RINS to value 100
Set parameter MIPGap to value 0.01
Set parameter Threads to value 24
Set parameter TimeLimit to value 259200
Set parameter IterationLimit to value 760000000
Gurobi Optimizer version 11.0.3 build v11.0.3rc0 (win64 - Windows Server 2019.0 (17763.2))

CPU model: AMD Ryzen Threadripper PRO 3955WX 16-Cores, instruction set [SSE2|AVX|AVX2]
Thread count: 16 physical cores, 32 logical processors, using up to 24 threads

Optimize a model with 42633 rows, 31555 columns and 109796 nonzeros
Model fingerprint: 0x9d0a7470
Variable types: 31521 continuous, 34 integer (34 binary)
Coefficient statistics:
  Matrix range     [2e-03, 9e+03]
  Objective range  [1e+00, 1e+00]
  Bounds range     [1e-04, 3e+00]
  RHS range        [1e-04, 3e+00]
Presolve removed 28860 rows and 14631 columns
Presolve time: 0.22s
Presolved: 13773 rows, 16924 columns, 50323 nonzeros
Variable types: 16890 continuous, 34 integer (34 binary)
Root relaxation presolved: 13773 rows, 16924 columns, 50323 nonzeros

Root barrier log...

Ordering time: 0.01s

Barrier statistics:
 Dense cols : 34
 AA' NZ     : 6.245e+04
 Factor NZ  : 2.420e+05 (roughly 14 MB of memory)
 Factor Ops : 5.061e+06 (less than 1 second per iteration)
 Threads    : 23

                  Objective                Residual
Iter       Primal          Dual         Primal    Dual     Compl     Time
   0   8.52116305e+06 -8.05919092e+08  1.51e+01 4.56e+03  8.62e+04     1s
   1   1.94199593e+06 -3.05072043e+08  3.13e+00 8.11e-09  1.71e+04     1s
   2   6.07114899e+05 -2.32889122e+08  7.20e-01 5.46e-09  7.69e+03     1s
   3   3.69376611e+05 -4.11089045e+07  2.55e-01 5.71e-09  1.33e+03     1s
   4   2.29510529e+05 -7.17634152e+06  1.92e-02 7.68e-10  1.90e+02     1s
   5   1.67044604e+05 -1.96550449e+06  4.79e-03 1.97e-10  5.31e+01     1s
   6   8.36061682e+04 -7.04537011e+05  1.82e-03 9.46e-11  1.95e+01     1s
   7   2.62897733e+04 -1.80887457e+05  3.26e-04 3.46e-11  5.10e+00     1s
   8   8.42294696e+03 -2.79320725e+04  3.24e-05 1.00e-11  8.95e-01     1s
   9   5.74130233e+03 -9.04852955e+03  1.54e-05 2.02e-11  3.64e-01     1s
  10   3.28730562e+03 -3.13712852e+03  5.81e-06 1.29e-11  1.58e-01     1s
  11   2.39453824e+03 -9.52075745e+02  3.18e-06 9.03e-12  8.24e-02     1s
  12   1.86479527e+03  6.91368702e+01  1.76e-06 5.35e-12  4.42e-02     1s
  13   1.41854171e+03  7.16860632e+02  6.60e-07 1.65e-11  1.73e-02     1s
  14   1.24412499e+03  8.57010591e+02  2.69e-07 5.61e-12  9.53e-03     1s
  15   1.19392390e+03  9.66511271e+02  1.63e-07 6.99e-12  5.60e-03     1s
  16   1.16259026e+03  1.02744445e+03  9.81e-08 1.50e-11  3.33e-03     1s
  17   1.13952807e+03  1.07001494e+03  5.27e-08 6.09e-12  1.71e-03     1s
  18   1.12596636e+03  1.08963207e+03  2.64e-08 8.30e-12  8.95e-04     1s
  19   1.11842505e+03  1.09969433e+03  1.26e-08 1.44e-11  4.61e-04     1s
  20   1.11497155e+03  1.10571273e+03  6.49e-09 8.37e-12  2.28e-04     1s
  21   1.11318059e+03  1.10942888e+03  3.39e-09 1.05e-11  9.24e-05     1s
  22   1.11162494e+03  1.11083312e+03  7.53e-10 1.01e-11  1.95e-05     1s
  23   1.11126271e+03  1.11099951e+03  2.49e-09 1.38e-11  6.48e-06     1s
  24   1.11118963e+03  1.11107198e+03  3.60e-09 5.85e-12  2.90e-06     1s
  25   1.11114522e+03  1.11110157e+03  1.85e-09 1.80e-11  1.07e-06     1s
  26   1.11112707e+03  1.11112250e+03  4.78e-10 1.50e-11  1.12e-07     1s
  27   1.11112560e+03  1.11112497e+03  5.01e-09 1.06e-11  1.54e-08     1s
  28   1.11112547e+03  1.11112546e+03  1.12e-09 9.25e-12  2.38e-10     1s

Barrier solved model in 28 iterations and 1.11 seconds (0.39 work units)
Optimal objective 1.11112547e+03


Root relaxation: objective 1.111125e+03, 1047 iterations, 0.95 seconds (0.32 work units)

    Nodes    |    Current Node    |     Objective Bounds      |     Work
 Expl Unexpl |  Obj  Depth IntInf | Incumbent    BestBd   Gap | It/Node Time

     0     0 1111.12547    0   23          - 1111.12547      -     -    1s
H    0     0                    5211.0742139 1111.12547  78.7%     -    1s
H    0     0                    2334.7489148 1111.12547  52.4%     -    1s
     0     0 1131.42247    0   23 2334.74891 1131.42247  51.5%     -    2s
     0     0 1132.35493    0   23 2334.74891 1132.35493  51.5%     -    2s
     0     0 1132.35508    0   23 2334.74891 1132.35508  51.5%     -    2s
     0     0 1133.63052    0   21 2334.74891 1133.63052  51.4%     -    2s
H    0     0                    1305.0301020 1133.63052  13.1%     -    3s
     0     0 1133.79842    0   21 1305.03010 1133.79842  13.1%     -    3s
     0     0 1133.80125    0   21 1305.03010 1133.80125  13.1%     -    3s
     0     0 1143.02832    0   20 1305.03010 1143.02832  12.4%     -    4s
     0     0 1143.02832    0   20 1305.03010 1143.02832  12.4%     -    4s
     0     0 1143.02832    0   20 1305.03010 1143.02832  12.4%     -    4s
     0     0 1144.25221    0   20 1305.03010 1144.25221  12.3%     -    4s
     0     0 1144.77980    0   20 1305.03010 1144.77980  12.3%     -    5s
H    0     0                    1275.0094196 1144.77980  10.2%     -   56s
     0     2 1144.77980    0   20 1275.00942 1144.77980  10.2%     -   56s
    29    40     cutoff    5      1275.00942 1185.83372  6.99%   447   60s
   299   113 1253.70523   13    8 1275.00942 1197.67414  6.07%   232   87s
H  300   113                    1274.9233172 1197.67414  6.06%   231   87s
   394   136     cutoff   18      1274.92332 1200.47541  5.84%   208   93s
   606   141 1248.39990    9   12 1274.92332 1200.47541  5.84%   180   95s
  1383    35 1256.46326   11   10 1274.92332 1212.93368  4.86%   134  101s
  1600     2     cutoff   10      1274.92332 1245.31006  2.32%   128  118s

Cutting planes:
  Gomory: 1
  Implied bound: 73
  MIR: 199
  Flow cover: 1
  RLT: 1

Explored 1609 nodes (209168 simplex iterations) in 119.33 seconds (113.43 work units)
Thread count was 24 (of 32 available processors)

Solution count 5: 1274.92 1275.01 1305.03 ... 5211.07

Optimal solution found (tolerance 1.00e-02)
Best objective 1.274923317200e+03, best bound 1.265018702286e+03, gap 0.7769%

Gurobi 11.0.3 (win64) logging started Thu Sep  5 11:28:37 2024

Set parameter LogFile to value "C:\Users\ealvarezq\Desktop\L.Cont_Investments_per_hour\IEEE118_mod2_ByStages_nc30/openStarNet_IEEE118_mod2_ByStages_nc30.log"
Set parameter Method to value 2
Set parameter MIPFocus to value 1
Set parameter Presolve to value 2
Set parameter RINS to value 100
Set parameter MIPGap to value 0.01
Set parameter Threads to value 24
Set parameter TimeLimit to value 259200
Set parameter IterationLimit to value 760000000
Gurobi Optimizer version 11.0.3 build v11.0.3rc0 (win64 - Windows Server 2019.0 (17763.2))

CPU model: AMD Ryzen Threadripper PRO 3955WX 16-Cores, instruction set [SSE2|AVX|AVX2]
Thread count: 16 physical cores, 32 logical processors, using up to 24 threads

Optimize a model with 42633 rows, 31521 columns and 105682 nonzeros
Model fingerprint: 0x92d4e1db
Coefficient statistics:
  Matrix range     [2e-03, 9e+03]
  Objective range  [1e+00, 1e+00]
  Bounds range     [1e-04, 3e+00]
  RHS range        [1e-04, 2e+02]
Presolve removed 31797 rows and 13892 columns
Presolve time: 0.06s
Presolved: 10836 rows, 17696 columns, 42545 nonzeros

Ordering time: 0.01s

Barrier statistics:
 AA' NZ     : 3.569e+04
 Factor NZ  : 1.427e+05 (roughly 13 MB of memory)
 Factor Ops : 2.071e+06 (less than 1 second per iteration)
 Threads    : 24

                  Objective                Residual
Iter       Primal          Dual         Primal    Dual     Compl     Time
   0   1.66775265e+07 -4.29713083e+08  1.00e+02 4.87e+02  4.76e+04     0s
   1   2.01458407e+06 -1.36799381e+08  1.08e+01 3.64e-12  6.59e+03     0s
   2   5.24044000e+05 -2.71682834e+07  2.02e+00 3.64e-12  1.08e+03     1s
   3   1.87430726e+05 -4.30516815e+06  6.04e-02 3.18e-12  1.22e+02     1s
   4   9.92370527e+04 -6.12709710e+05  5.00e-03 4.55e-12  1.85e+01     1s
   5   3.14353765e+04 -1.43445504e+05  1.08e-03 1.59e-12  4.53e+00     1s
   6   8.86390357e+03 -3.72770586e+04  1.36e-04 1.51e-12  1.19e+00     1s
   7   6.36823642e+03 -1.67598658e+04  7.81e-05 6.09e-13  5.98e-01     1s
   8   4.25161710e+03 -5.52863172e+03  3.80e-05 5.48e-13  2.53e-01     1s
   9   3.17956304e+03 -3.35267782e+03  2.25e-05 6.48e-13  1.69e-01     1s
  10   2.18097092e+03 -1.32045310e+03  9.03e-06 6.63e-13  9.05e-02     1s
  11   1.82692458e+03  3.52997022e+02  5.06e-06 9.68e-13  3.81e-02     1s
  12   1.64522686e+03  7.75568082e+02  3.27e-06 7.67e-13  2.25e-02     1s
  13   1.48559758e+03  9.57961105e+02  1.79e-06 6.55e-13  1.36e-02     1s
  14   1.38274540e+03  1.07490289e+03  8.64e-07 5.79e-13  7.96e-03     1s
  15   1.32698140e+03  1.17643572e+03  3.98e-07 8.96e-13  3.89e-03     1s
  16   1.29307093e+03  1.24672346e+03  1.28e-07 5.78e-13  1.20e-03     1s
  17   1.28323160e+03  1.26079491e+03  5.65e-08 7.44e-13  5.80e-04     1s
  18   1.27746503e+03  1.27069377e+03  1.59e-08 1.04e-12  1.75e-04     1s
  19   1.27563449e+03  1.27352157e+03  4.20e-09 1.24e-12  5.46e-05     1s
  20   1.27501908e+03  1.27488176e+03  4.54e-10 1.17e-12  3.55e-06     1s
  21   1.27492440e+03  1.27492264e+03  6.19e-11 1.24e-12  4.56e-08     1s
  22   1.27492332e+03  1.27492332e+03  7.40e-11 1.30e-12  4.57e-11     1s

Barrier solved model in 22 iterations and 0.74 seconds (0.17 work units)
Optimal objective 1.27492332e+03

Crossover log...

    3127 DPushes remaining with DInf 0.0000000e+00                 1s
       0 DPushes remaining with DInf 0.0000000e+00                 1s

     133 PPushes remaining with PInf 0.0000000e+00                 1s
       0 PPushes remaining with PInf 0.0000000e+00                 1s

  Push phase complete: Pinf 0.0000000e+00, Dinf 2.5728381e-12      1s

Iteration    Objective       Primal Inf.    Dual Inf.      Time
     807    1.2749233e+03   0.000000e+00   0.000000e+00      1s

Solved in 807 iterations and 0.83 seconds (0.20 work units)
Optimal objective  1.274923317e+03
